1312.71 0
0 134 163 24 29 121 169 78 34 164 120 9 1 176 0
0 184 77 3 158 129 79 185 81 33 157 102 50 0
0 147 6 183 96 99 104 59 92 151 97 117 95 94 0
0 189 10 108 90 126 63 181 32 131 160 128 30 70 0
0 51 103 161 71 135 35 136 65 66 188 20 122 0
0 89 84 17 113 86 140 38 44 119 14 192 100 37 98 0
0 105 40 152 58 137 144 57 15 43 142 42 172 87 13 0
0 52 7 123 19 107 175 11 64 49 143 36 47 168 124 46 0
0 154 138 12 109 177 80 150 68 116 196 76 0
0 156 112 0
0 28 111 132 69 101 162 31 190 127 167 27 0
0 54 130 165 55 25 170 67 39 187 139 4 155 0
0 180 21 73 171 74 72 198 110 179 195 149 26 0
0 166 118 60 83 199 125 45 174 8 114 18 146 0
0 153 106 194 82 48 182 62 159 148 88 0
0 53 197 56 186 23 75 133 22 41 145 115 178 2 0
0 93 85 193 91 191 141 16 61 173 5 0
